c description: Tseitin formula on Random 4-regular graph of 10 vertices, with odd charge
c generator: CNFgen (0.9.0)
c copyright: (C) 2012-2020 Massimo Lauria <massimo.lauria@uniroma1.it>
c url: https://massimolauria.net/cnfgen
c command line: cnfgen tseitin 10
c
p cnf 20 80
1 2 3 4 0
1 2 -3 -4 0
1 -2 3 -4 0
1 -2 -3 4 0
-1 2 3 -4 0
-1 2 -3 4 0
-1 -2 3 4 0
-1 -2 -3 -4 0
5 6 7 -8 0
5 6 -7 8 0
5 -6 7 8 0
5 -6 -7 -8 0
-5 6 7 8 0
-5 6 -7 -8 0
-5 -6 7 -8 0
-5 -6 -7 8 0
1 9 10 -11 0
1 9 -10 11 0
1 -9 10 11 0
1 -9 -10 -11 0
-1 9 10 11 0
-1 9 -10 -11 0
-1 -9 10 -11 0
-1 -9 -10 11 0
2 5 9 12 0
2 5 -9 -12 0
2 -5 9 -12 0
2 -5 -9 12 0
-2 5 9 -12 0
-2 5 -9 12 0
-2 -5 9 12 0
-2 -5 -9 -12 0
6 10 13 -14 0
6 10 -13 14 0
6 -10 13 14 0
6 -10 -13 -14 0
-6 10 13 14 0
-6 10 -13 -14 0
-6 -10 13 -14 0
-6 -10 -13 14 0
3 13 15 16 0
3 13 -15 -16 0
3 -13 15 -16 0
3 -13 -15 16 0
-3 13 15 -16 0
-3 13 -15 16 0
-3 -13 15 16 0
-3 -13 -15 -16 0
12 14 17 18 0
12 14 -17 -18 0
12 -14 17 -18 0
12 -14 -17 18 0
-12 14 17 -18 0
-12 14 -17 18 0
-12 -14 17 18 0
-12 -14 -17 -18 0
7 15 19 -20 0
7 15 -19 20 0
7 -15 19 20 0
7 -15 -19 -20 0
-7 15 19 20 0
-7 15 -19 -20 0
-7 -15 19 -20 0
-7 -15 -19 20 0
4 8 17 -19 0
4 8 -17 19 0
4 -8 17 19 0
4 -8 -17 -19 0
-4 8 17 19 0
-4 8 -17 -19 0
-4 -8 17 -19 0
-4 -8 -17 19 0
11 16 18 20 0
11 16 -18 -20 0
11 -16 18 -20 0
11 -16 -18 20 0
-11 16 18 -20 0
-11 16 -18 20 0
-11 -16 18 20 0
-11 -16 -18 -20 0
